webassembly/ejemplos_results/16/folder16_json_88.txt
value = 16;
fgas = [1, 1, 1, 2, 2, 1, 1, 1, 1, 1, 1, 1, 1, 1, 1, 1];
fsize = [1, 1, 1, 1, 1, 1, 1, 1, 1, 1, 1, 1, 1, 1, 1, 1];
states = 
[|   in_0,   in_1, in_2, in_3, in_4, in_5, in_6, in_7, in_8,  '.',  '.', '.', '.', '.'
 | 's(3)',   in_0, in_1, in_2, in_3, in_4, in_5, in_6, in_7, in_8,  '.', '.', '.', '.'
 | 's(3)', 's(3)', in_0, in_1, in_2, in_3, in_4, in_5, in_6, in_7, in_8, '.', '.', '.'
 | 's(3)',   in_0, in_1, in_2, in_3, in_4, in_5, in_6, in_7, in_8,  '.', '.', '.', '.'
 |   in_0,   in_1, in_2, in_3, in_4, in_5, in_6, in_7, in_8,  '.',  '.', '.', '.', '.'
 |   in_1,   in_2, in_3, in_4, in_5, in_6, in_7, in_8,  '.',  '.',  '.', '.', '.', '.'
 |   in_1,   in_2, in_3, in_4, in_5, in_6, in_7, in_8,  '.',  '.',  '.', '.', '.', '.'
 |   in_2,   in_3, in_4, in_5, in_6, in_7, in_8,  '.',  '.',  '.',  '.', '.', '.', '.'
 | 's(0)',   in_3, in_4, in_5, in_6, in_7, in_8,  '.',  '.',  '.',  '.', '.', '.', '.'
 | 's(1)',   in_3, in_4, in_5, in_6, in_7, in_8,  '.',  '.',  '.',  '.', '.', '.', '.'
 | 's(4)',   in_5, in_6, in_7, in_8,  '.',  '.',  '.',  '.',  '.',  '.', '.', '.', '.'
 |   in_5,   in_6, in_7, in_8,  '.',  '.',  '.',  '.',  '.',  '.',  '.', '.', '.', '.'
 |   in_7,   in_8,  '.',  '.',  '.',  '.',  '.',  '.',  '.',  '.',  '.', '.', '.', '.'
 | 's(2)',   in_8,  '.',  '.',  '.',  '.',  '.',  '.',  '.',  '.',  '.', '.', '.', '.'
 |   in_0,   in_4,  '.',  '.',  '.',  '.',  '.',  '.',  '.',  '.',  '.', '.', '.', '.'
 |   in_7, 's(3)',  '.',  '.',  '.',  '.',  '.',  '.',  '.',  '.',  '.', '.', '.', '.'
 | 's(4)',    '.',  '.',  '.',  '.',  '.',  '.',  '.',  '.',  '.',  '.', '.', '.', '.'
 |];
register_states = 
[| local_0, local_1, '.', '.', '.', '.', '.'
 | local_0, local_1, '.', '.', '.', '.', '.'
 | local_0, local_1, '.', '.', '.', '.', '.'
 |  's(3)', local_1, '.', '.', '.', '.', '.'
 |  's(3)', local_1, '.', '.', '.', '.', '.'
 |  's(3)', local_1, '.', '.', '.', '.', '.'
 |  's(3)',    in_1, '.', '.', '.', '.', '.'
 |    in_1,    in_1, '.', '.', '.', '.', '.'
 |    in_1,    in_1, '.', '.', '.', '.', '.'
 |    in_1,    in_1, '.', '.', '.', '.', '.'
 |    in_1,    in_1, '.', '.', '.', '.', '.'
 |    in_1,  's(4)', '.', '.', '.', '.', '.'
 |    in_1,  's(4)', '.', '.', '.', '.', '.'
 |    in_1,  's(4)', '.', '.', '.', '.', '.'
 |    in_1,  's(4)', '.', '.', '.', '.', '.'
 |    in_1,  's(4)', '.', '.', '.', '.', '.'
 |    in_1,  's(4)', '.', '.', '.', '.', '.'
 |];
program = [O('call[function_index(0)]_12'), O('call[function_index(0)]_12'), S(SET1), POP, POP, TEE(TEE2), S(SET1), O('i32.load16_u_2'), O('i32.load16_s_3'), O('i32.store8_4'), S(SET2), O('i32.store8_7'), O('i32.load16_s_9'), O('i32.store8_10'), O('i32.store_6'), O('i32.add_0')];
% time elapsed: 0.70 s
----------
value = 15;
fgas = [1, 1, 2, 2, 1, 1, 1, 1, 1, 1, 1, 1, 1, 1, 1, 0];
fsize = [1, 1, 1, 1, 1, 1, 1, 1, 1, 1, 1, 1, 1, 1, 1, 1];
states = 
[|   in_0,   in_1, in_2, in_3, in_4, in_5, in_6, in_7, in_8,  '.',  '.', '.', '.', '.'
 | 's(3)',   in_0, in_1, in_2, in_3, in_4, in_5, in_6, in_7, in_8,  '.', '.', '.', '.'
 | 's(3)', 's(3)', in_0, in_1, in_2, in_3, in_4, in_5, in_6, in_7, in_8, '.', '.', '.'
 | 's(3)',   in_0, in_1, in_2, in_3, in_4, in_5, in_6, in_7, in_8,  '.', '.', '.', '.'
 |   in_0,   in_1, in_2, in_3, in_4, in_5, in_6, in_7, in_8,  '.',  '.', '.', '.', '.'
 |   in_1,   in_2, in_3, in_4, in_5, in_6, in_7, in_8,  '.',  '.',  '.', '.', '.', '.'
 |   in_2,   in_3, in_4, in_5, in_6, in_7, in_8,  '.',  '.',  '.',  '.', '.', '.', '.'
 | 's(0)',   in_3, in_4, in_5, in_6, in_7, in_8,  '.',  '.',  '.',  '.', '.', '.', '.'
 | 's(1)',   in_3, in_4, in_5, in_6, in_7, in_8,  '.',  '.',  '.',  '.', '.', '.', '.'
 |   in_5,   in_6, in_6, in_7, in_8,  '.',  '.',  '.',  '.',  '.',  '.', '.', '.', '.'
 | 's(4)',   in_7, in_8,  '.',  '.',  '.',  '.',  '.',  '.',  '.',  '.', '.', '.', '.'
 |   in_7,   in_8,  '.',  '.',  '.',  '.',  '.',  '.',  '.',  '.',  '.', '.', '.', '.'
 | 's(2)',   in_8,  '.',  '.',  '.',  '.',  '.',  '.',  '.',  '.',  '.', '.', '.', '.'
 |   in_0,   in_4,  '.',  '.',  '.',  '.',  '.',  '.',  '.',  '.',  '.', '.', '.', '.'
 |   in_7, 's(3)',  '.',  '.',  '.',  '.',  '.',  '.',  '.',  '.',  '.', '.', '.', '.'
 | 's(4)',    '.',  '.',  '.',  '.',  '.',  '.',  '.',  '.',  '.',  '.', '.', '.', '.'
 | 's(4)',    '.',  '.',  '.',  '.',  '.',  '.',  '.',  '.',  '.',  '.', '.', '.', '.'
 |];
register_states = 
[| local_0, local_1, '.', '.', '.', '.', '.'
 | local_0, local_1, '.', '.', '.', '.', '.'
 | local_0, local_1, '.', '.', '.', '.', '.'
 | local_0, local_1, '.', '.', '.', '.', '.'
 | local_0, local_1, '.', '.', '.', '.', '.'
 | local_0,    in_0, '.', '.', '.', '.', '.'
 |    in_1,    in_0, '.', '.', '.', '.', '.'
 |    in_1,    in_0, '.', '.', '.', '.', '.'
 |    in_1,    in_0, '.', '.', '.', '.', '.'
 |    in_1,    in_0, '.', '.', '.', '.', '.'
 |    in_1,    in_0, '.', '.', '.', '.', '.'
 |    in_1,  's(4)', '.', '.', '.', '.', '.'
 |    in_1,  's(4)', '.', '.', '.', '.', '.'
 |    in_1,  's(4)', '.', '.', '.', '.', '.'
 |    in_1,  's(4)', '.', '.', '.', '.', '.'
 |    in_1,  's(4)', '.', '.', '.', '.', '.'
 |    in_1,  's(4)', '.', '.', '.', '.', '.'
 |];
program = [O('call[function_index(0)]_12'), O('call[function_index(0)]_12'), POP, POP, S(SET2), S(SET1), O('i32.load16_u_2'), O('i32.load16_s_3'), O('i32.store8_4'), O('i32.store8_7'), S(SET2), O('i32.load16_s_9'), O('i32.store8_10'), O('i32.store_6'), O('i32.add_0'), NOP];
% time elapsed: 0.77 s
----------
value = 14;
fgas = [2, 1, 2, 1, 2, 1, 1, 1, 1, 1, 1, 1, 1, 1, 0, 0];
fsize = [1, 1, 1, 1, 1, 1, 1, 1, 1, 1, 1, 1, 1, 1, 1, 1];
states = 
[|   in_0,   in_1, in_2, in_3, in_4, in_5, in_6, in_7, in_8, '.', '.', '.', '.', '.'
 |   in_1,   in_2, in_3, in_4, in_5, in_6, in_7, in_8,  '.', '.', '.', '.', '.', '.'
 |   in_1,   in_2, in_3, in_4, in_5, in_6, in_7, in_8,  '.', '.', '.', '.', '.', '.'
 |   in_2,   in_3, in_4, in_5, in_6, in_7, in_8,  '.',  '.', '.', '.', '.', '.', '.'
 | 's(3)',   in_2, in_3, in_4, in_5, in_6, in_7, in_8,  '.', '.', '.', '.', '.', '.'
 |   in_2,   in_3, in_4, in_5, in_6, in_7, in_8,  '.',  '.', '.', '.', '.', '.', '.'
 | 's(0)',   in_3, in_4, in_5, in_6, in_7, in_8,  '.',  '.', '.', '.', '.', '.', '.'
 | 's(1)',   in_3, in_4, in_5, in_6, in_7, in_8,  '.',  '.', '.', '.', '.', '.', '.'
 |   in_5,   in_6, in_6, in_7, in_8,  '.',  '.',  '.',  '.', '.', '.', '.', '.', '.'
 |   in_7,   in_8, in_8,  '.',  '.',  '.',  '.',  '.',  '.', '.', '.', '.', '.', '.'
 | 's(2)',   in_8, in_8,  '.',  '.',  '.',  '.',  '.',  '.', '.', '.', '.', '.', '.'
 |   in_0,   in_4,  '.',  '.',  '.',  '.',  '.',  '.',  '.', '.', '.', '.', '.', '.'
 |   in_7, 's(3)',  '.',  '.',  '.',  '.',  '.',  '.',  '.', '.', '.', '.', '.', '.'
 | 's(4)', 's(4)',  '.',  '.',  '.',  '.',  '.',  '.',  '.', '.', '.', '.', '.', '.'
 | 's(4)',    '.',  '.',  '.',  '.',  '.',  '.',  '.',  '.', '.', '.', '.', '.', '.'
 | 's(4)',    '.',  '.',  '.',  '.',  '.',  '.',  '.',  '.', '.', '.', '.', '.', '.'
 | 's(4)',    '.',  '.',  '.',  '.',  '.',  '.',  '.',  '.', '.', '.', '.', '.', '.'
 |];
register_states = 
[| local_0, local_1, '.', '.', '.', '.', '.'
 | local_0, local_1, '.', '.', '.', '.', '.'
 |    in_1, local_1, '.', '.', '.', '.', '.'
 |    in_1, local_1, '.', '.', '.', '.', '.'
 |    in_1, local_1, '.', '.', '.', '.', '.'
 |    in_1, local_1, '.', '.', '.', '.', '.'
 |    in_1, local_1, '.', '.', '.', '.', '.'
 |    in_1, local_1, '.', '.', '.', '.', '.'
 |    in_1, local_1, '.', '.', '.', '.', '.'
 |    in_1, local_1, '.', '.', '.', '.', '.'
 |    in_1, local_1, '.', '.', '.', '.', '.'
 |    in_1, local_1, '.', '.', '.', '.', '.'
 |    in_1, local_1, '.', '.', '.', '.', '.'
 |    in_1, local_1, '.', '.', '.', '.', '.'
 |    in_1,  's(4)', '.', '.', '.', '.', '.'
 |    in_1,  's(4)', '.', '.', '.', '.', '.'
 |    in_1,  's(4)', '.', '.', '.', '.', '.'
 |];
program = [POP, TEE(TEE1), POP, O('call[function_index(0)]_12'), POP, O('i32.load16_u_2'), O('i32.load16_s_3'), O('i32.store8_4'), O('i32.store8_7'), O('i32.load16_s_9'), O('i32.store8_10'), O('i32.store_6'), O('i32.add_0'), S(SET2), NOP, NOP];
% time elapsed: 0.77 s
----------
value = 13;
fgas = [2, 1, 1, 1, 1, 1, 1, 1, 1, 1, 1, 1, 1, 0, 0, 0];
fsize = [1, 1, 1, 1, 1, 1, 1, 1, 1, 1, 1, 1, 1, 1, 1, 1];
states = 
[|   in_0,   in_1, in_2, in_3, in_4, in_5, in_6, in_7, in_8, '.', '.', '.', '.', '.'
 |   in_1,   in_2, in_3, in_4, in_5, in_6, in_7, in_8,  '.', '.', '.', '.', '.', '.'
 | 's(3)',   in_1, in_2, in_3, in_4, in_5, in_6, in_7, in_8, '.', '.', '.', '.', '.'
 |   in_1,   in_2, in_3, in_4, in_5, in_6, in_7, in_8,  '.', '.', '.', '.', '.', '.'
 |   in_2,   in_3, in_4, in_5, in_6, in_7, in_8,  '.',  '.', '.', '.', '.', '.', '.'
 | 's(0)',   in_3, in_4, in_5, in_6, in_7, in_8,  '.',  '.', '.', '.', '.', '.', '.'
 | 's(1)',   in_3, in_4, in_5, in_6, in_7, in_8,  '.',  '.', '.', '.', '.', '.', '.'
 | 's(4)',   in_5, in_6, in_7, in_8,  '.',  '.',  '.',  '.', '.', '.', '.', '.', '.'
 |   in_5,   in_6, in_7, in_8,  '.',  '.',  '.',  '.',  '.', '.', '.', '.', '.', '.'
 |   in_7,   in_8,  '.',  '.',  '.',  '.',  '.',  '.',  '.', '.', '.', '.', '.', '.'
 | 's(2)',   in_8,  '.',  '.',  '.',  '.',  '.',  '.',  '.', '.', '.', '.', '.', '.'
 |   in_0,   in_4,  '.',  '.',  '.',  '.',  '.',  '.',  '.', '.', '.', '.', '.', '.'
 |   in_7, 's(3)',  '.',  '.',  '.',  '.',  '.',  '.',  '.', '.', '.', '.', '.', '.'
 | 's(4)',    '.',  '.',  '.',  '.',  '.',  '.',  '.',  '.', '.', '.', '.', '.', '.'
 | 's(4)',    '.',  '.',  '.',  '.',  '.',  '.',  '.',  '.', '.', '.', '.', '.', '.'
 | 's(4)',    '.',  '.',  '.',  '.',  '.',  '.',  '.',  '.', '.', '.', '.', '.', '.'
 | 's(4)',    '.',  '.',  '.',  '.',  '.',  '.',  '.',  '.', '.', '.', '.', '.', '.'
 |];
register_states = 
[| local_0, local_1, '.', '.', '.', '.', '.'
 | local_0, local_1, '.', '.', '.', '.', '.'
 | local_0, local_1, '.', '.', '.', '.', '.'
 |  's(3)', local_1, '.', '.', '.', '.', '.'
 |    in_1, local_1, '.', '.', '.', '.', '.'
 |    in_1, local_1, '.', '.', '.', '.', '.'
 |    in_1, local_1, '.', '.', '.', '.', '.'
 |    in_1, local_1, '.', '.', '.', '.', '.'
 |    in_1,  's(4)', '.', '.', '.', '.', '.'
 |    in_1,  's(4)', '.', '.', '.', '.', '.'
 |    in_1,  's(4)', '.', '.', '.', '.', '.'
 |    in_1,  's(4)', '.', '.', '.', '.', '.'
 |    in_1,  's(4)', '.', '.', '.', '.', '.'
 |    in_1,  's(4)', '.', '.', '.', '.', '.'
 |    in_1,  's(4)', '.', '.', '.', '.', '.'
 |    in_1,  's(4)', '.', '.', '.', '.', '.'
 |    in_1,  's(4)', '.', '.', '.', '.', '.'
 |];
program = [POP, O('call[function_index(0)]_12'), S(SET1), S(SET1), O('i32.load16_u_2'), O('i32.load16_s_3'), O('i32.store8_4'), S(SET2), O('i32.store8_7'), O('i32.load16_s_9'), O('i32.store8_10'), O('i32.store_6'), O('i32.add_0'), NOP, NOP, NOP];
% time elapsed: 0.77 s
----------
value = 12;
fgas = [1, 1, 1, 1, 1, 1, 1, 1, 1, 1, 1, 1, 0, 0, 0, 0];
fsize = [1, 1, 1, 1, 1, 1, 1, 1, 1, 1, 1, 1, 1, 1, 1, 1];
states = 
[|   in_0, in_1, in_2, in_3, in_4, in_5, in_6, in_7, in_8, '.', '.', '.', '.', '.'
 |   in_1, in_2, in_3, in_4, in_5, in_6, in_7, in_8,  '.', '.', '.', '.', '.', '.'
 |   in_2, in_3, in_4, in_5, in_6, in_7, in_8,  '.',  '.', '.', '.', '.', '.', '.'
 | 's(0)', in_3, in_4, in_5, in_6, in_7, in_8,  '.',  '.', '.', '.', '.', '.', '.'
 | 's(1)', in_3, in_4, in_5, in_6, in_7, in_8,  '.',  '.', '.', '.', '.', '.', '.'
 | 's(4)', in_5, in_6, in_7, in_8,  '.',  '.',  '.',  '.', '.', '.', '.', '.', '.'
 |   in_5, in_6, in_7, in_8,  '.',  '.',  '.',  '.',  '.', '.', '.', '.', '.', '.'
 |   in_0, in_4,  '.',  '.',  '.',  '.',  '.',  '.',  '.', '.', '.', '.', '.', '.'
 |   in_7, in_8,  '.',  '.',  '.',  '.',  '.',  '.',  '.', '.', '.', '.', '.', '.'
 | 's(2)', in_8,  '.',  '.',  '.',  '.',  '.',  '.',  '.', '.', '.', '.', '.', '.'
 |   in_7, in_0,  '.',  '.',  '.',  '.',  '.',  '.',  '.', '.', '.', '.', '.', '.'
 | 's(3)', in_7, in_0,  '.',  '.',  '.',  '.',  '.',  '.', '.', '.', '.', '.', '.'
 | 's(4)',  '.',  '.',  '.',  '.',  '.',  '.',  '.',  '.', '.', '.', '.', '.', '.'
 | 's(4)',  '.',  '.',  '.',  '.',  '.',  '.',  '.',  '.', '.', '.', '.', '.', '.'
 | 's(4)',  '.',  '.',  '.',  '.',  '.',  '.',  '.',  '.', '.', '.', '.', '.', '.'
 | 's(4)',  '.',  '.',  '.',  '.',  '.',  '.',  '.',  '.', '.', '.', '.', '.', '.'
 | 's(4)',  '.',  '.',  '.',  '.',  '.',  '.',  '.',  '.', '.', '.', '.', '.', '.'
 |];
register_states = 
[| local_0, local_1, '.', '.', '.', '.', '.'
 |    in_0, local_1, '.', '.', '.', '.', '.'
 |    in_1, local_1, '.', '.', '.', '.', '.'
 |    in_1, local_1, '.', '.', '.', '.', '.'
 |    in_1, local_1, '.', '.', '.', '.', '.'
 |    in_1, local_1, '.', '.', '.', '.', '.'
 |    in_1,  's(4)', '.', '.', '.', '.', '.'
 |    in_1,  's(4)', '.', '.', '.', '.', '.'
 |    in_1,  's(4)', '.', '.', '.', '.', '.'
 |    in_1,  's(4)', '.', '.', '.', '.', '.'
 |    in_1,  's(4)', '.', '.', '.', '.', '.'
 |    in_1,  's(4)', '.', '.', '.', '.', '.'
 |    in_1,  's(4)', '.', '.', '.', '.', '.'
 |    in_1,  's(4)', '.', '.', '.', '.', '.'
 |    in_1,  's(4)', '.', '.', '.', '.', '.'
 |    in_1,  's(4)', '.', '.', '.', '.', '.'
 |    in_1,  's(4)', '.', '.', '.', '.', '.'
 |];
program = [S(SET1), S(SET1), O('i32.load16_u_2'), O('i32.load16_s_3'), O('i32.store8_4'), S(SET2), O('i32.store8_7'), O('i32.store_6'), O('i32.load16_s_9'), O('i32.store8_10'), O('call[function_index(0)]_12'), O('i32.add_0'), NOP, NOP, NOP, NOP];
% time elapsed: 0.85 s
----------
==========
% time elapsed: 0.89 s
% [value > 11]
